
set I:= 2	3	4 5 6	7 	8	9	10	11 12 13	14	15 16	17	18	19	20 21 22 23  ;
	   

set Nodos:= 1 2	3	4 5 6	7 	8	9	10	11 12 13	14	15 16	17	18	19	20 21 22 23  ;

set K:= 1 2 3;
set R:= A B C;
set T:= A B C;

param: xcoord	ycoord :=
1	266	235
2	295	272
3	301	258
4	309	260
5	217	274
6	218	278
7	282	267
8	242	249
9	230	262
10	249	268
11	256	267
12	265	257
13	267	242
14	259	265
15	315	233
16	329	252
17	318	252
18	329	224
19	267	213
20	275	192
21	303	201
22	208	217
23	326	181
;

param Q:=
1   6000
2   7000
3   8000
;

param P:=
A   1000
B   1500
C   0000
;


param alfa:=
A   1
B   0.7
C   0.3
;


param a:  A   B   C:=
1	0	0	0
2	1	0	0
3	0	1	0
4	0	0	1
5	1	0	0
6	0	1	0
7	0	0	1
8	1	0	0
9	0	1	0
10	0	0	1
11	1	0	0
12	0	1	0
13	0	0	1
14	1	0	0
15	0	1	0
16	0	0	1
17	1	0	0
18	0	1	0
19	0	0	1
20	1	0	0
21	0	1	0
22	0	0	1
23	1	0	0
;

param q:  A   B   C:=
1	0	0	0
2	125	0	0
3	0	84	0
4	0	0	60
5	500	0	0
6	0	300	0
7	0	0	175
8	350	0	0
9	0	150	0
10	0	0	1100
11	4100	0	0
12	0	225	0
13	0	0	300
14	250	0	0
15	0	500	0
16	0	0	150
17	100	0	0
18	0	250	0
19	0	0	120
20	600	0	0
21	0	500	0
22	0	0	175
23	75	0	0
;

param qu :=
1	0
2	125
3	84
4	60
5	500
6	300
7	175
8	350
9	150
10	1100
11	4100
12	225
13	300
14	250
15	500
16	150
17	100
18	250
19	120
20	600
21	500
22	175
23	75
;

set IT:=
(	2	,	A	)
(	3	,	B	)
(	4	,	C	)
(	5	,	A	)
(	6	,	B	)
(	7	,	C	)
(	8	,	A	)
(	9	,	B	)
(	10	,	C	)
(	11	,	A	)
(	12	,	B	)
(	13	,	C	)
(	14	,	A	)
(	15	,	B	)
(	16	,	C	)
(	17	,	A	)
(	18	,	B	)
(	19	,	C	)
(	20	,	A	)
(	21	,	B	)
(	22	,	C	)
(	23	,	A	)
;
